\ LP format - for model browsing. Use MPS format to capture full model detail.
Minimize
  - 14 x[0] - 9 x[1] - 20 x[2] - 15 x[3] - 4 x[4] - 40 x[5] - 18 x[6]
   - 11 x[7] - 13 x[8] - 16 x[9] - 17 x[10] - 8 x[11] - 9 x[12] - 24 x[13]
   - 10 x[14] - 7 x[15] - 12 x[16] - 3 x[17] - 4 x[18] - 5 x[19] + eta
Subject To
 First_Stage_Constr_0: = 0
 First_Stage_Constr_1: = 0
 First_Stage_Constr_2: = 0
 First_Stage_Constr_3: = 0
 First_Stage_Constr_4: = 0
 First_Stage_Constr_5: = 0
 First_Stage_Constr_6: = 0
 First_Stage_Constr_7: = 0
 R8: - 10308.60074474838 x[0] - 7622.543990983426 x[1]
   - 7596.868663002561 x[2] - 6563.534263070059 x[3]
   - 9963.416494413314 x[4] - 5614.556371614131 x[5]
   - 6204.069475383686 x[6] - 3895.05418346796 x[7]
   - 3980.815508413547 x[8] - 8739.534745145789 x[9]
   - 9107.766230706105 x[10] - 9425.559546527436 x[11]
   - 8984.388652916428 x[12] - 10931.81908163283 x[13]
   - 12119.44284489139 x[14] - 6239.374590887565 x[15]
   - 9853.398011495137 x[16] - 9514.215913001912 x[17]
   - 10928.01540572682 x[18] - 12015.79140338772 x[19] + eta
   >= -3.1371340524439239e+06
 R9: - 5154.300372374189 x[0] - 3811.271995491713 x[1]
   - 3798.434331501281 x[2] - 3281.767131535029 x[3]
   - 4981.708247206657 x[4] - 2807.278185807066 x[5]
   - 3102.034737691843 x[6] - 1947.52709173398 x[7]
   - 1990.407754206774 x[8] - 4369.767372572895 x[9]
   - 4553.883115353053 x[10] - 4712.779773263718 x[11]
   - 4492.194326458214 x[12] - 5465.909540816416 x[13]
   - 6059.721422445697 x[14] - 3119.687295443783 x[15]
   - 4926.699005747569 x[16] - 4757.107956500956 x[17]
   - 5464.007702863412 x[18] - 6007.895701693861 x[19] + eta
   >= -1.5685670262219619e+06
 R10: - 3436.200248249459 x[0] - 2540.847996994475 x[1]
   - 2532.289554334187 x[2] - 2187.844754356686 x[3]
   - 3321.138831471104 x[4] - 1871.518790538044 x[5]
   - 2068.023158461228 x[6] - 1298.35139448932 x[7]
   - 1326.938502804516 x[8] - 2913.178248381929 x[9]
   - 3035.922076902035 x[10] - 3141.853182175812 x[11]
   - 2994.796217638809 x[12] - 3643.93969387761 x[13]
   - 4039.814281630465 x[14] - 2079.791530295855 x[15]
   - 3284.466003831712 x[16] - 3171.40530433397 x[17]
   - 3642.671801908941 x[18] - 4005.263801129241 x[19] + eta
   >= -1.0457113508146413e+06
 R11: - 2577.150186187095 x[0] - 1905.635997745856 x[1]
   - 1899.21716575064 x[2] - 1640.883565767515 x[3]
   - 2490.854123603328 x[4] - 1403.639092903533 x[5]
   - 1551.017368845922 x[6] - 973.7635458669899 x[7]
   - 995.2038771033868 x[8] - 2184.883686286447 x[9]
   - 2276.941557676526 x[10] - 2356.389886631859 x[11]
   - 2246.097163229107 x[12] - 2732.954770408208 x[13]
   - 3029.860711222849 x[14] - 1559.843647721891 x[15]
   - 2463.349502873784 x[16] - 2378.553978250478 x[17]
   - 2732.003851431706 x[18] - 3003.947850846931 x[19] + eta
   >= -784283.513110981
 R12: - 515.4300372374189 x[0] - 381.1271995491713 x[1]
   - 379.843433150128 x[2] - 328.1767131535029 x[3]
   - 498.1708247206656 x[4] - 280.7278185807066 x[5]
   - 310.2034737691843 x[6] - 194.752709173398 x[7]
   - 199.0407754206774 x[8] - 436.9767372572894 x[9]
   - 455.3883115353053 x[10] - 471.2779773263718 x[11]
   - 449.2194326458214 x[12] - 546.5909540816416 x[13]
   - 605.9721422445698 x[14] - 311.9687295443783 x[15]
   - 492.6699005747569 x[16] - 475.7107956500956 x[17]
   - 546.4007702863412 x[18] - 600.789570169386 x[19] + eta
   >= -156856.7026221962
 R13: - 5109.208406483902 x[0] - 2824.183814661099 x[1]
   - 3958.144862800215 x[2] - 2267.92209627825 x[3]
   - 5488.640461139879 x[4] - 3583.047923973095 x[5]
   - 3768.428835472223 x[6] - 2457.638123606235 x[7]
   - 2934.39228135631 x[8] - 3185.682342970336 x[9]
   - 3551.403256890035 x[10] - 3159.969107710779 x[11]
   - 4076.548553809327 x[12] - 4425.991749319641 x[13]
   - 6053.453427295 x[14] - 4156.412137900506 x[15]
   - 5387.339265675309 x[16] - 5555.617681629901 x[17]
   - 7553.960166489001 x[18] - 8220.074328108692 x[19] + eta
   >= -1.0621366821822419e+06
 R14: - 2554.604203241951 x[0] - 1412.091907330549 x[1]
   - 1979.072431400107 x[2] - 1133.961048139125 x[3]
   - 2744.32023056994 x[4] - 1791.523961986548 x[5]
   - 1884.214417736111 x[6] - 1228.819061803117 x[7]
   - 1467.196140678155 x[8] - 1592.841171485168 x[9]
   - 1775.701628445018 x[10] - 1579.98455385539 x[11]
   - 2038.274276904663 x[12] - 2212.99587465982 x[13]
   - 3026.7267136475 x[14] - 2078.206068950253 x[15]
   - 2693.669632837655 x[16] - 2777.808840814951 x[17]
   - 3776.980083244501 x[18] - 4110.037164054346 x[19] + eta
   >= -531068.341091121
 R15: - 1703.069468827967 x[0] - 941.394604887033 x[1]
   - 1319.381620933405 x[2] - 755.9740320927499 x[3]
   - 1829.54682037996 x[4] - 1194.349307991032 x[5]
   - 1256.142945157408 x[6] - 819.2127078687449 x[7]
   - 978.1307604521035 x[8] - 1061.894114323445 x[9]
   - 1183.801085630012 x[10] - 1053.323035903593 x[11]
   - 1358.849517936442 x[12] - 1475.330583106547 x[13]
   - 2017.817809098333 x[14] - 1385.470712633502 x[15]
   - 1795.779755225103 x[16] - 1851.8725605433 x[17] - 2517.986722163 x[18]
   - 2740.024776036231 x[19] + eta >= -354045.5607274139
 R16: - 1277.302101620975 x[0] - 706.0459536652747 x[1]
   - 989.5362157000537 x[2] - 566.9805240695624 x[3]
   - 1372.16011528497 x[4] - 895.7619809932738 x[5]
   - 942.1072088680557 x[6] - 614.4095309015587 x[7]
   - 733.5980703390776 x[8] - 796.4205857425841 x[9]
   - 887.8508142225088 x[10] - 789.9922769276948 x[11]
   - 1019.137138452332 x[12] - 1106.49793732991 x[13]
   - 1513.36335682375 x[14] - 1039.103034475126 x[15]
   - 1346.834816418827 x[16] - 1388.904420407475 x[17]
   - 1888.49004162225 x[18] - 2055.018582027173 x[19] + eta
   >= -265534.1705455605
 R17: - 255.4604203241951 x[0] - 141.209190733055 x[1]
   - 197.9072431400107 x[2] - 113.3961048139125 x[3]
   - 274.432023056994 x[4] - 179.1523961986548 x[5]
   - 188.4214417736111 x[6] - 122.8819061803117 x[7]
   - 146.7196140678155 x[8] - 159.2841171485168 x[9]
   - 177.5701628445018 x[10] - 157.998455385539 x[11]
   - 203.8274276904663 x[12] - 221.2995874659821 x[13]
   - 302.67267136475 x[14] - 207.8206068950253 x[15]
   - 269.3669632837655 x[16] - 277.7808840814951 x[17]
   - 377.6980083244501 x[18] - 411.0037164054346 x[19] + eta
   >= -53106.83410911209
 R18: - 1986.687856478093 x[0] - 1095.542317640782 x[1]
   - 1541.11508705944 x[2] - 891.1455388373085 x[3]
   - 2147.471850221548 x[4] - 1417.110305127695 x[5]
   - 1460.723090187709 x[6] - 971.5375357090397 x[7]
   - 1111.365604970382 x[8] - 1268.292521785054 x[9]
   - 1340.575385184748 x[10] - 1231.513309973335 x[11]
   - 1599.70069140116 x[12] - 1723.705473332905 x[13]
   - 2351.868629025019 x[14] - 1621.507083931166 x[15]
   - 2088.886245879829 x[16] - 2132.499030939841 x[17]
   - 2921.446180375419 x[18] - 3184.428563520609 x[19] + eta
   >= -198330.6688333486
 R19: - 993.3439282390464 x[0] - 547.7711588203911 x[1]
   - 770.5575435297202 x[2] - 445.5727694186543 x[3]
   - 1073.735925110774 x[4] - 708.5551525638473 x[5]
   - 730.3615450938547 x[6] - 485.7687678545199 x[7]
   - 555.6828024851911 x[8] - 634.1462608925268 x[9]
   - 670.2876925923739 x[10] - 615.7566549866674 x[11]
   - 799.8503457005799 x[12] - 861.8527366664524 x[13]
   - 1175.934314512509 x[14] - 810.7535419655831 x[15]
   - 1044.443122939915 x[16] - 1066.24951546992 x[17]
   - 1460.723090187709 x[18] - 1592.214281760305 x[19] + eta
   >= -99165.33441667428
 R20: - 662.2292854926975 x[0] - 365.1807725469274 x[1]
   - 513.7050290198134 x[2] - 297.0485129457695 x[3]
   - 715.8239500738492 x[4] - 472.3701017092315 x[5]
   - 486.9076967292364 x[6] - 323.8458452363465 x[7]
   - 370.4552016567941 x[8] - 422.7641739283512 x[9]
   - 446.8584617282493 x[10] - 410.5044366577782 x[11]
   - 533.2335638003865 x[12] - 574.5684911109682 x[13]
   - 783.9562096750062 x[14] - 540.5023613103887 x[15]
   - 696.2954152932764 x[16] - 710.8330103132802 x[17]
   - 973.8153934584728 x[18] - 1061.476187840203 x[19] + eta
   >= -66110.22294444952
 R21: - 496.6719641195232 x[0] - 273.8855794101955 x[1]
   - 385.2787717648601 x[2] - 222.7863847093271 x[3]
   - 536.867962555387 x[4] - 354.2775762819236 x[5]
   - 365.1807725469274 x[6] - 242.8843839272599 x[7]
   - 277.8414012425956 x[8] - 317.0731304462634 x[9]
   - 335.143846296187 x[10] - 307.8783274933337 x[11]
   - 399.9251728502899 x[12] - 430.9263683332262 x[13]
   - 587.9671572562547 x[14] - 405.3767709827915 x[15]
   - 522.2215614699574 x[16] - 533.1247577349602 x[17]
   - 730.3615450938547 x[18] - 796.1071408801523 x[19] + eta
   >= -49582.66720833714
 R22: - 99.33439282390464 x[0] - 54.77711588203911 x[1]
   - 77.05575435297202 x[2] - 44.55727694186542 x[3]
   - 107.3735925110774 x[4] - 70.85551525638472 x[5]
   - 73.03615450938547 x[6] - 48.57687678545198 x[7]
   - 55.56828024851912 x[8] - 63.41462608925269 x[9]
   - 67.02876925923739 x[10] - 61.57566549866673 x[11]
   - 79.98503457005798 x[12] - 86.18527366664523 x[13]
   - 117.5934314512509 x[14] - 81.07535419655829 x[15]
   - 104.4443122939915 x[16] - 106.624951546992 x[17]
   - 146.0723090187709 x[18] - 159.2214281760305 x[19] + eta
   >= -9916.533441667427
 R23: - 177.7325713175543 x[0] - 99.97457136612044 x[1]
   - 138.8535713418368 x[2] - 77.75799995142799 x[3]
   - 188.8408570248972 x[4] - 122.1911427808134 x[5]
   - 133.2994284881643 x[6] - 83.31214280510041 x[7]
   - 105.5287142197905 x[8] - 111.0828570734715 x[9]
   - 122.1911427808134 x[10] - 116.6369999271443 x[11]
   - 138.8535713418368 x[12] - 155.515999902856 x[13]
   - 211.0574284395809 x[14] - 144.4077141955105 x[15]
   - 188.8408570248972 x[16] - 199.9491427322409 x[17]
   - 266.5988569763286 x[18] - 288.8154283910209 x[19] + eta
   >= -11316.59586012355
 R24: - 88.86628565877717 x[0] - 49.98728568306022 x[1]
   - 69.42678567091842 x[2] - 38.878999975714 x[3] - 94.42042851244861 x[4]
   - 61.0955713904067 x[5] - 66.64971424408216 x[6] - 41.6560714025502 x[7]
   - 52.76435710989523 x[8] - 55.54142853673576 x[9]
   - 61.0955713904067 x[10] - 58.31849996357213 x[11]
   - 69.42678567091842 x[12] - 77.75799995142799 x[13]
   - 105.5287142197905 x[14] - 72.20385709775523 x[15]
   - 94.42042851244861 x[16] - 99.97457136612044 x[17]
   - 133.2994284881643 x[18] - 144.4077141955105 x[19] + eta
   >= -5658.297930061775
 R25: - 59.24419043918478 x[0] - 33.32485712204014 x[1]
   - 46.28452378061228 x[2] - 25.91933331714266 x[3]
   - 62.9469523416324 x[4] - 40.7303809269378 x[5] - 44.43314282938811 x[6]
   - 27.7707142683668 x[7] - 35.17623807326348 x[8]
   - 37.02761902449051 x[9] - 40.7303809269378 x[10]
   - 38.87899997571475 x[11] - 46.28452378061228 x[12]
   - 51.83866663428532 x[13] - 70.35247614652697 x[14]
   - 48.13590473183682 x[15] - 62.9469523416324 x[16]
   - 66.64971424408029 x[17] - 88.86628565877622 x[18]
   - 96.27180946367363 x[19] + eta >= -3772.198620041183
 R26: - 44.43314282938859 x[0] - 24.99364284153011 x[1]
   - 34.71339283545921 x[2] - 19.439499987857 x[3] - 47.2102142562243 x[4]
   - 30.54778569520335 x[5] - 33.32485712204108 x[6]
   - 20.8280357012751 x[7] - 26.38217855494761 x[8]
   - 27.77071426836788 x[9] - 30.54778569520335 x[10]
   - 29.15924998178606 x[11] - 34.71339283545921 x[12]
   - 38.878999975714 x[13] - 52.76435710989523 x[14]
   - 36.10192854887762 x[15] - 47.2102142562243 x[16]
   - 49.98728568306022 x[17] - 66.64971424408216 x[18]
   - 72.20385709775523 x[19] + eta >= -2829.148965030888
 R27: - 8.886628565877716 x[0] - 4.998728568306022 x[1]
   - 6.942678567091841 x[2] - 3.8878999975714 x[3] - 9.44204285124486 x[4]
   - 6.10955713904067 x[5] - 6.664971424408217 x[6]
   - 4.165607140255021 x[7] - 5.276435710989523 x[8]
   - 5.554142853673576 x[9] - 6.10955713904067 x[10]
   - 5.831849996357213 x[11] - 6.942678567091841 x[12]
   - 7.775799995142799 x[13] - 10.55287142197905 x[14]
   - 7.220385709775523 x[15] - 9.44204285124486 x[16]
   - 9.997457136612043 x[17] - 13.32994284881643 x[18]
   - 14.44077141955105 x[19] + eta >= -565.8297930061775
 R28: - 86.93815749858717 x[0] - 48.90271359295681 x[1]
   - 67.92043554577376 x[2] - 38.03544390563223 x[3]
   - 92.37179234224642 x[4] - 59.76998328027661 x[5]
   - 65.20361812393904 x[6] - 40.75226132746241 x[7]
   - 51.61953101478538 x[8] - 54.33634843661991 x[9]
   - 59.76998328027661 x[10] - 57.05316585844846 x[11]
   - 67.92043554577376 x[12] - 76.07088781126447 x[13]
   - 103.2390620295708 x[14] - 70.63725296760133 x[15]
   - 92.37179234224642 x[16] - 97.80542718591363 x[17]
   - 130.4072362478781 x[18] - 141.2745059352027 x[19] + eta
   >= -5477.047818102943
 R29: - 43.46907874929359 x[0] - 24.45135679647841 x[1]
   - 33.96021777288688 x[2] - 19.01772195281612 x[3]
   - 46.18589617112321 x[4] - 29.8849916401383 x[5]
   - 32.60180906196952 x[6] - 20.37613066373121 x[7]
   - 25.80976550739269 x[8] - 27.16817421830995 x[9]
   - 29.8849916401383 x[10] - 28.52658292922423 x[11]
   - 33.96021777288688 x[12] - 38.03544390563223 x[13]
   - 51.61953101478538 x[14] - 35.31862648380066 x[15]
   - 46.18589617112321 x[16] - 48.90271359295681 x[17]
   - 65.20361812393904 x[18] - 70.63725296760133 x[19] + eta
   >= -2738.523909051471
 R30: - 28.97938583286239 x[0] - 16.3009045309856 x[1]
   - 22.64014518192458 x[2] - 12.67848130187741 x[3]
   - 30.79059744741547 x[4] - 19.9233277600922 x[5]
   - 21.73453937464635 x[6] - 13.58408710915414 x[7]
   - 17.20651033826179 x[8] - 18.11211614553997 x[9]
   - 19.9233277600922 x[10] - 19.01772195281615 x[11]
   - 22.64014518192458 x[12] - 25.35696260375482 x[13]
   - 34.41302067652359 x[14] - 23.54575098920044 x[15]
   - 30.79059744741547 x[16] - 32.6018090619712 x[17]
   - 43.46907874929269 x[18] - 47.09150197840088 x[19] + eta
   >= -1825.682606034314
 R31: - 21.73453937464679 x[0] - 12.2256783982392 x[1]
   - 16.98010888644344 x[2] - 9.508860976408059 x[3]
   - 23.09294808556161 x[4] - 14.94249582006915 x[5]
   - 16.30090453098476 x[6] - 10.1880653318656 x[7]
   - 12.90488275369635 x[8] - 13.58408710915498 x[9]
   - 14.94249582006915 x[10] - 14.26329146461211 x[11]
   - 16.98010888644344 x[12] - 19.01772195281612 x[13]
   - 25.80976550739269 x[14] - 17.65931324190033 x[15]
   - 23.09294808556161 x[16] - 24.45135679647841 x[17]
   - 32.60180906196952 x[18] - 35.31862648380066 x[19] + eta
   >= -1369.261954525736
 R32: - 4.346907874929358 x[0] - 2.445135679647841 x[1]
   - 3.396021777288688 x[2] - 1.901772195281612 x[3]
   - 4.618589617112321 x[4] - 2.98849916401383 x[5]
   - 3.260180906196952 x[6] - 2.037613066373121 x[7]
   - 2.580976550739269 x[8] - 2.716817421830995 x[9]
   - 2.98849916401383 x[10] - 2.852658292922423 x[11]
   - 3.396021777288688 x[12] - 3.803544390563224 x[13]
   - 5.161953101478538 x[14] - 3.531862648380066 x[15]
   - 4.618589617112321 x[16] - 4.890271359295681 x[17]
   - 6.520361812393904 x[18] - 7.063725296760132 x[19] + eta
   >= -273.8523909051472
Bounds
 x[0] <= 2000
 x[1] <= 2000
 x[2] <= 2000
 x[3] <= 2000
 x[4] <= 2000
 x[5] <= 2000
 x[6] <= 2000
 x[7] <= 2000
 x[8] <= 2000
 x[9] <= 2000
 x[10] <= 2000
 x[11] <= 2000
 x[12] <= 2000
 x[13] <= 2000
 x[14] <= 2000
 x[15] <= 2000
 x[16] <= 2000
 x[17] <= 2000
 x[18] <= 2000
 x[19] <= 2000
 eta >= -3000
End
